\ENCODING=ISO-8859-1
\Problem name: ilog.cplex

Maximize
 obj: 15 x_ijk_0_0_0 + 15 x_ijk_0_0_1 + 15 x_ijk_0_0_2 + 16 x_ijk_0_1_0
      + 16 x_ijk_0_1_1 + 16 x_ijk_0_1_2 + 2 x_ijk_0_2_0 + 2 x_ijk_0_2_1
      + 2 x_ijk_0_2_2 + 11 x_ijk_0_3_0 + 11 x_ijk_0_3_1 + 11 x_ijk_0_3_2
      + 8 x_ijk_0_4_0 + 8 x_ijk_0_4_1 + 8 x_ijk_0_4_2 + 13 x_ijk_1_0_0
      + 13 x_ijk_1_0_1 + 13 x_ijk_1_0_2 + 16 x_ijk_1_1_0 + 16 x_ijk_1_1_1
      + 16 x_ijk_1_1_2 + 16 x_ijk_1_2_0 + 16 x_ijk_1_2_1 + 16 x_ijk_1_2_2
      + 8 x_ijk_1_3_0 + 8 x_ijk_1_3_1 + 8 x_ijk_1_3_2 + 3 x_ijk_2_0_0
      + 3 x_ijk_2_0_1 + 3 x_ijk_2_0_2 + 4 x_ijk_2_1_0 + 4 x_ijk_2_1_1
      + 4 x_ijk_2_1_2 + 12 x_ijk_2_2_0 + 12 x_ijk_2_2_1 + 12 x_ijk_2_2_2
      + 11 x_ijk_3_0_0 + 11 x_ijk_3_0_1 + 11 x_ijk_3_0_2 + 6 x_ijk_3_1_0
      + 6 x_ijk_3_1_1 + 6 x_ijk_3_1_2
Subject To
 c1:  2 x_ijk_0_0_0 + 29 x_ijk_0_1_0 + 23 x_ijk_0_2_0 + 16 x_ijk_0_3_0
      + 24 x_ijk_0_4_0 + 31 x_ijk_1_0_0 + 12 x_ijk_1_1_0 + 28 x_ijk_1_2_0
      + 40 x_ijk_1_3_0 + 20 x_ijk_2_0_0 + 3 x_ijk_2_1_0 + 28 x_ijk_2_2_0
      + 28 x_ijk_3_0_0 + 32 x_ijk_3_1_0 - Rgc1  = -2147483647
 c2:  10 x_ijk_0_0_1 + 11 x_ijk_0_1_1 + 4 x_ijk_0_2_1 + 10 x_ijk_0_3_1
      + 12 x_ijk_0_4_1 + 3 x_ijk_1_0_1 + 15 x_ijk_1_1_1 + 6 x_ijk_1_2_1
      + 31 x_ijk_1_3_1 + 38 x_ijk_2_0_1 + 26 x_ijk_2_1_1 + 35 x_ijk_2_2_1
      + 24 x_ijk_3_0_1 + 32 x_ijk_3_1_1 - Rgc2  = -2147483647
 c3:  10 x_ijk_0_0_2 + x_ijk_0_1_2 + x_ijk_0_2_2 + 5 x_ijk_0_3_2
      + 16 x_ijk_0_4_2 + 4 x_ijk_1_0_2 + 8 x_ijk_1_1_2 + 6 x_ijk_1_2_2
      + 5 x_ijk_1_3_2 + 3 x_ijk_2_0_2 + 3 x_ijk_2_1_2 + 13 x_ijk_2_2_2
      + 2 x_ijk_3_0_2 + 19 x_ijk_3_1_2 - Rgc3  = -2147483647
 c4:  x_ijk_0_0_0 + x_ijk_0_1_0 + x_ijk_0_2_0 + x_ijk_0_3_0 + x_ijk_0_4_0
      - Rgc4  = -2147483647
 c5:  x_ijk_0_0_1 + x_ijk_0_1_1 + x_ijk_0_2_1 + x_ijk_0_3_1 + x_ijk_0_4_1
      - Rgc5  = -2147483647
 c6:  x_ijk_0_0_2 + x_ijk_0_1_2 + x_ijk_0_2_2 + x_ijk_0_3_2 + x_ijk_0_4_2
      - Rgc6  = -2147483647
 c7:  x_ijk_1_0_0 + x_ijk_1_1_0 + x_ijk_1_2_0 + x_ijk_1_3_0 - Rgc7
       = -2147483647
 c8:  x_ijk_1_0_1 + x_ijk_1_1_1 + x_ijk_1_2_1 + x_ijk_1_3_1 - Rgc8
       = -2147483647
 c9:  x_ijk_1_0_2 + x_ijk_1_1_2 + x_ijk_1_2_2 + x_ijk_1_3_2 - Rgc9
       = -2147483647
 c10: x_ijk_2_0_0 + x_ijk_2_1_0 + x_ijk_2_2_0 - Rgc10  = -2147483647
 c11: x_ijk_2_0_1 + x_ijk_2_1_1 + x_ijk_2_2_1 - Rgc11  = -2147483647
 c12: x_ijk_2_0_2 + x_ijk_2_1_2 + x_ijk_2_2_2 - Rgc12  = -2147483647
 c13: x_ijk_3_0_0 + x_ijk_3_1_0 - Rgc13  = -2147483647
 c14: x_ijk_3_0_1 + x_ijk_3_1_1 - Rgc14  = -2147483647
 c15: x_ijk_3_0_2 + x_ijk_3_1_2 - Rgc15  = -2147483647
Bounds
 0 <= x_ijk_0_0_0 <= 1
 0 <= x_ijk_0_0_1 <= 1
 0 <= x_ijk_0_0_2 <= 1
 0 <= x_ijk_0_1_0 <= 1
 0 <= x_ijk_0_1_1 <= 1
 0 <= x_ijk_0_1_2 <= 1
 0 <= x_ijk_0_2_0 <= 1
 0 <= x_ijk_0_2_1 <= 1
 0 <= x_ijk_0_2_2 <= 1
 0 <= x_ijk_0_3_0 <= 1
 0 <= x_ijk_0_3_1 <= 1
 0 <= x_ijk_0_3_2 <= 1
 0 <= x_ijk_0_4_0 <= 1
 0 <= x_ijk_0_4_1 <= 1
 0 <= x_ijk_0_4_2 <= 1
 0 <= x_ijk_1_0_0 <= 1
 0 <= x_ijk_1_0_1 <= 1
 0 <= x_ijk_1_0_2 <= 1
 0 <= x_ijk_1_1_0 <= 1
 0 <= x_ijk_1_1_1 <= 1
 0 <= x_ijk_1_1_2 <= 1
 0 <= x_ijk_1_2_0 <= 1
 0 <= x_ijk_1_2_1 <= 1
 0 <= x_ijk_1_2_2 <= 1
 0 <= x_ijk_1_3_0 <= 1
 0 <= x_ijk_1_3_1 <= 1
 0 <= x_ijk_1_3_2 <= 1
 0 <= x_ijk_2_0_0 <= 1
 0 <= x_ijk_2_0_1 <= 1
 0 <= x_ijk_2_0_2 <= 1
 0 <= x_ijk_2_1_0 <= 1
 0 <= x_ijk_2_1_1 <= 1
 0 <= x_ijk_2_1_2 <= 1
 0 <= x_ijk_2_2_0 <= 1
 0 <= x_ijk_2_2_1 <= 1
 0 <= x_ijk_2_2_2 <= 1
 0 <= x_ijk_3_0_0 <= 1
 0 <= x_ijk_3_0_1 <= 1
 0 <= x_ijk_3_0_2 <= 1
 0 <= x_ijk_3_1_0 <= 1
 0 <= x_ijk_3_1_1 <= 1
 0 <= x_ijk_3_1_2 <= 1
 0 <= Rgc1 <= 2147483733
 0 <= Rgc2 <= 2147483729
 0 <= Rgc3 <= 2147483667
 0 <= Rgc4 <= 2147483648
 0 <= Rgc5 <= 2147483648
 0 <= Rgc6 <= 2147483648
 0 <= Rgc7 <= 2147483648
 0 <= Rgc8 <= 2147483648
 0 <= Rgc9 <= 2147483648
 0 <= Rgc10 <= 2147483648
 0 <= Rgc11 <= 2147483648
 0 <= Rgc12 <= 2147483648
 0 <= Rgc13 <= 2147483648
 0 <= Rgc14 <= 2147483648
 0 <= Rgc15 <= 2147483648
Generals
 x_ijk_0_0_0  x_ijk_0_0_1  x_ijk_0_0_2  x_ijk_0_1_0  x_ijk_0_1_1  x_ijk_0_1_2 
 x_ijk_0_2_0  x_ijk_0_2_1  x_ijk_0_2_2  x_ijk_0_3_0  x_ijk_0_3_1  x_ijk_0_3_2 
 x_ijk_0_4_0  x_ijk_0_4_1  x_ijk_0_4_2  x_ijk_1_0_0  x_ijk_1_0_1  x_ijk_1_0_2 
 x_ijk_1_1_0  x_ijk_1_1_1  x_ijk_1_1_2  x_ijk_1_2_0  x_ijk_1_2_1  x_ijk_1_2_2 
 x_ijk_1_3_0  x_ijk_1_3_1  x_ijk_1_3_2  x_ijk_2_0_0  x_ijk_2_0_1  x_ijk_2_0_2 
 x_ijk_2_1_0  x_ijk_2_1_1  x_ijk_2_1_2  x_ijk_2_2_0  x_ijk_2_2_1  x_ijk_2_2_2 
 x_ijk_3_0_0  x_ijk_3_0_1  x_ijk_3_0_2  x_ijk_3_1_0  x_ijk_3_1_1  x_ijk_3_1_2 
End
